
Gurobi 6.5.0 (mac64) logging started Sat Apr  9 13:35:23 2016


Gurobi 6.5.0 (mac64) logging started Tue Apr 19 18:31:41 2016

Optimize a model with 3057 rows, 43808 columns and 1086146 nonzeros
Coefficient statistics:
  Matrix range    [1e+00, 1e+00]
  Objective range [1e+00, 1e+00]
  Bounds range    [1e+00, 1e+00]
  RHS range       [1e+00, 6e+00]
Presolve removed 18 rows and 15314 columns
Presolve time: 2.62s
Presolved: 3039 rows, 28494 columns, 720772 nonzeros
Variable types: 0 continuous, 28494 integer (28494 binary)

Root simplex log...

Iteration    Objective       Primal Inf.    Dual Inf.      Time
    2632    1.9200006e+02   1.113224e+04   0.000000e+00      5s
    8276    2.5900010e+02   1.212745e+04   0.000000e+00     10s
   13027    2.8800037e+02   3.051095e+03   0.000000e+00     15s
   15693    2.8800000e+02   0.000000e+00   0.000000e+00     18s

Root relaxation: objective 2.880000e+02, 15693 iterations, 14.92 seconds

    Nodes    |    Current Node    |     Objective Bounds      |     Work
 Expl Unexpl |  Obj  Depth IntInf | Incumbent    BestBd   Gap | It/Node Time

     0     0  288.00000    0  983          -  288.00000      -     -   31s
     0     0  288.00000    0  955          -  288.00000      -     -   36s
     0     0  288.00000    0  931          -  288.00000      -     -   41s
     0     0  288.00000    0  906          -  288.00000      -     -   44s
     0     0  288.00000    0  901          -  288.00000      -     -   49s
     0     0  288.00000    0  895          -  288.00000      -     -   50s
     0     0  288.00000    0  898          -  288.00000      -     -   56s
     0     0  288.00000    0  901          -  288.00000      -     -   57s
     0     0  288.00000    0  903          -  288.00000      -     -   59s
     0     0  288.00000    0  892          -  288.00000      -     -   60s
     0     0  288.00000    0  905          -  288.00000      -     -   80s
     0     0  288.00000    0  903          -  288.00000      -     -   81s
     0     0  288.00000    0  906          -  288.00000      -     -   99s
     0     0  288.00000    0  890          -  288.00000      -     -   99s
     0     0  288.00000    0  898          -  288.00000      -     -  116s
     0     0  288.00000    0  898          -  288.00000      -     -  131s
     0     2  288.00000    0  898          -  288.00000      -     -  302s
     5     8  288.00000    3  895          -  288.00000      -  4105  305s
    17    18  288.00000    7  871          -  288.00000      -  1490  310s
    33    34  288.00000   12  843          -  288.00000      -   934  315s
    48    48  288.00000   18  800          -  288.00000      -   763  320s
    68    67  288.00000   25  773          -  288.00000      -   625  325s
    90    92  288.00000   31  757          -  288.00000      -   543  330s
   110   111  288.00000   38  688          -  288.00000      -   502  335s
   138   139  288.00000   48  680          -  288.00000      -   451  341s
   162   164  288.00000   54  716          -  288.00000      -   427  345s
   184   186  288.00000   59  679          -  288.00000      -   414  351s
   207   206  288.00000   66  674          -  288.00000      -   398  355s
   248   249  288.00000   80  654          -  288.00000      -   370  361s
   278   279  288.00000   91  636          -  288.00000      -   358  365s
   308   309  288.00000  101  644          -  288.00000      -   350  370s
   343   343  288.00000  112  618          -  288.00000      -   340  375s
   386   387  288.00000  128  584          -  288.00000      -   328  380s
   436   440  288.00000  149  558          -  288.00000      -   317  386s
   492   493  288.00000  171  511          -  288.00000      -   309  391s
   541   544  288.00000  193  485          -  288.00000      -   300  395s
   629   628  288.00000  228  419          -  288.00000      -   285  400s
   743   740  296.00000  275   84          -  288.00000      -   269  406s
*  746   740             278     300.0000000  288.00000  4.00%   268  406s
H  824   761                     296.0000000  288.00000  2.70%   250  565s
   826   764  288.00000  234  437  296.00000  288.00000  2.70%   250  570s
*  918   831             269     294.0000000  288.00000  2.04%   243  573s
   997   889  288.00000   73  898  294.00000  288.00000  2.04%   239  595s
   999   890  288.00000  107  983  294.00000  288.00000  2.04%   239  674s
  1000   891  288.00000  116  943  294.00000  288.00000  2.04%   238  702s
  1001   892  288.00000  145  924  294.00000  288.00000  2.04%   238  712s
  1002   892  288.00000  240  910  294.00000  288.00000  2.04%   238  735s
  1003   893  288.00000  222  890  294.00000  288.00000  2.04%   238  743s
  1004   894  288.00000  115  908  294.00000  288.00000  2.04%   237  768s
  1005   894  288.00000  111  893  294.00000  288.00000  2.04%   237  776s
  1006   895  288.00000    5  896  294.00000  288.00000  2.04%   237  800s
  1007   896  289.33333  257  885  294.00000  288.00000  2.04%   237  808s
  1008   896  288.00000  183  886  294.00000  288.00000  2.04%   237  830s
  1009   897  288.15385  242  884  294.00000  288.00000  2.04%   236  838s
  1010   898  288.00000   86  880  294.00000  288.00000  2.04%   236  919s
  1011   898  288.00000   44  880  294.00000  288.00000  2.04%   236  943s
  1012   899  288.00000  138  880  294.00000  288.00000  2.04%   236 1032s
  1013   902  288.00000   13  899  294.00000  288.00000  2.04%   419 6681s
  1014   902  288.00000   13  896  294.00000  288.00000  2.04%   419 6779s
  1015   903  288.00000   14  896  294.00000  288.00000  2.04%   419 6795s
  1016   904  288.00000   14  890  294.00000  288.00000  2.04%   419 6811s
  1017   904  288.00000   15  865  294.00000  288.00000  2.04%   419 6829s
  1018   905  288.00000   15  889  294.00000  288.00000  2.04%   419 6839s
  1019   904  288.00000   16  871  294.00000  288.00000  2.04%   419 6848s
  1020   907  288.00000   16  880  294.00000  288.00000  2.04%   419 6862s
  1022   907  288.00000   17  886  294.00000  288.00000  2.04%   419 6872s
  1024   912  288.00000   17  883  294.00000  288.00000  2.04%   418 6891s
  1030   913  288.00000   19  873  294.00000  288.00000  2.04%   418 6911s
  1035   915  288.00000   20  879  294.00000  288.00000  2.04%   418 6929s
  1039   918  288.00000   21  883  294.00000  288.00000  2.04%   418 6956s
  1041   919  288.00000   21  850  294.00000  288.00000  2.04%   417 6979s
  1049   925  288.00000   24  844  294.00000  288.00000  2.04%   417 7004s
  1057   930  288.00000   26  850  294.00000  288.00000  2.04%   416 7031s
  1065   935  288.00000   28  832  294.00000  288.00000  2.04%   416 7055s
  1073   941  288.00000   29  814  294.00000  288.00000  2.04%   415 7075s
  1083   947  288.00000   32  819  294.00000  288.00000  2.04%   414 7283s
  1085   949  288.00000   33  828  294.00000  288.00000  2.04%   414 7312s
  1095   955  288.00000   35  828  294.00000  288.00000  2.04%   414 7347s
  1109   965  288.00000   39  806  294.00000  288.00000  2.04%   413 7375s
  1123   974  288.00000   43  779  294.00000  288.00000  2.04%   412 7410s
  1141   986  288.00000   47  785  294.00000  288.00000  2.04%   411 7441s
  1155   995  288.00000   50  778  294.00000  288.00000  2.04%   412 7473s
  1177  1010  288.00000   55  761  294.00000  288.00000  2.04%   411 7507s
  1203  1027  288.00000   61  737  294.00000  288.00000  2.04%   410 7543s
  1235  1050  288.00000   68  753  294.00000  288.00000  2.04%   408 7575s
  1276  1077  288.00000   76  753  294.00000  288.00000  2.04%   405 7606s
  1329  1113  288.00000   85  696  294.00000  288.00000  2.04%   401 7638s
  1387  1153  288.00000   94  664  294.00000  288.00000  2.04%   398 7671s
  1522  1237  288.00000  109  636  294.00000  288.00000  2.04%   385 7703s
  1820  1403  288.00000  129  613  294.00000  288.00000  2.04%   351 7735s
  1972  1456  288.00000  162  537  294.00000  288.00000  2.04%   336 7766s
  2121  1554  288.00000  229  452  294.00000  288.00000  2.04%   329 7798s
  2359  1679  288.03910  341  332  294.00000  288.00000  2.04%   323 7833s
  2609  1720  288.00000   21  869  294.00000  288.00000  2.04%   302 7868s
  2652  1750  288.00000   32  817  294.00000  288.00000  2.04%   302 7905s
  2697  1779  288.00000   42  799  294.00000  288.00000  2.04%   302 7942s
  2753  1820  288.00000   53  785  294.00000  288.00000  2.04%   303 7981s
  2824  1863  288.00000   67  736  294.00000  288.00000  2.04%   303 8021s
  2933  1941  288.00000   85  698  294.00000  288.00000  2.04%   303 8060s
  3149  2074  288.00000  106  681  294.00000  288.00000  2.04%   301 8099s
  3489  2213  288.00000  142  591  294.00000  288.00000  2.04%   296 8138s
H 3686  1947                     292.0000000  288.00000  1.37%   293 8138s
  3742  2180  288.02807  257  326  292.00000  288.00000  1.37%   293 8169s
  3876  2262  290.11696  318  297  292.00000  288.00000  1.37%   289 8202s
  4004  2349  288.00000   29  833  292.00000  288.00000  1.37%   285 9863s
  4042  2385  288.00000   39  857  292.00000  288.00000  1.37%   286 10030s
  4044  2382  288.00000   38  817  292.00000  288.00000  1.37%   286 10081s
  4086  2426  288.00000   54  789  292.00000  288.00000  1.37%   288 10126s
  4143  2489  288.00000   70  744  292.00000  288.00000  1.37%   289 10186s
  4266  2609  288.00000   98  691  292.00000  288.00000  1.37%   291 10246s
  4474  2805  288.00000  143  604  292.00000  288.00000  1.37%   293 10306s
  4961  3273  288.00000   20  871  292.00000  288.00000  1.37%   289 10370s
  5343  3631  288.00000   36  836  292.00000  288.00000  1.37%   285 10437s
  5486  3770  288.00000   70  770  292.00000  288.00000  1.37%   286 10503s
  5678  3960  288.00000  122  645  292.00000  288.00000  1.37%   287 10566s
  5858  4151  288.00000  146  644  292.00000  288.00000  1.37%   287 10623s
  6093  4359  288.00000  206  544  292.00000  288.00000  1.37%   288 10692s
  6699  4946  288.00000   30  877  292.00000  288.00000  1.37%   281 10763s
  6952  5198  288.00000  130  772  292.00000  288.00000  1.37%   281 10834s
  7132  5378  288.00000  202  779  292.00000  288.00000  1.37%   280 10908s
  7463  5708  288.00000  343  772  292.00000  288.00000  1.37%   280 11058s
  7465  5710  288.00000  344  772  292.00000  288.00000  1.37%   280 11135s
  7893  6137  288.00000  519  730  292.00000  288.00000  1.37%   279 11212s
  8277  6519  288.00000  657  734  292.00000  288.00000  1.37%   279 11285s
  8546  6788  288.00000  842  711  292.00000  288.00000  1.37%   279 11370s
  9109  7347  288.00000 1066  700  292.00000  288.00000  1.37%   280 11453s
  9737  7957  288.00000 1323  664  292.00000  288.00000  1.37%   276 11534s
 10214  8428  288.00000 1627  565  292.00000  288.00000  1.37%   277 11617s
 10658  8862  288.00000   82  810  292.00000  288.00000  1.37%   279 11704s
 11079  9281  288.00000  273  794  292.00000  288.00000  1.37%   279 11789s
 11548  9750  288.00000  480  719  292.00000  288.00000  1.37%   279 11866s
 11954 10155  288.00000  684  693  292.00000  288.00000  1.37%   279 12033s
 11956 10158  288.00000  685  686  292.00000  288.00000  1.37%   279 12126s
 12605 10802  288.00000  902  690  292.00000  288.00000  1.37%   277 12212s
 13129 11299  288.00000 1177  626  292.00000  288.00000  1.37%   276 12292s
 13490 11658  288.00000 1377  610  292.00000  288.00000  1.37%   276 12378s
 13764 11926  288.00000 1576  600  292.00000  288.00000  1.37%   277 12462s
 14233 12386  288.00000   41  821  292.00000  288.00000  1.37%   278 12544s
 14386 12540  288.00000   72  799  292.00000  288.00000  1.37%   278 12627s
 14828 12980  288.00000  244  767  292.00000  288.00000  1.37%   278 13292s
 15002 13155  288.00000  290  781  292.00000  288.00000  1.37%   278 13357s
 15256 13409  288.00000  454  739  292.00000  288.00000  1.37%   278 13438s
 15643 13790  288.00000  563  728  292.00000  288.00000  1.37%   278 13590s
 15808 13939  288.00000  564  716  292.00000  288.00000  1.37%   278 13676s
 16156 14286  288.00000  767  685  292.00000  288.00000  1.37%   278 13755s
 16322 14450  288.00000  869  721  292.00000  288.00000  1.37%   278 13889s
 16324 14456  288.00000  870  717  292.00000  288.00000  1.37%   278 13964s
 16606 14734  288.00000 1037  671  292.00000  288.00000  1.37%   278 14103s
 16608 14739  288.00000 1038  657  292.00000  288.00000  1.37%   278 14183s
 17167 15290  288.00000 1283  509  292.00000  288.00000  1.37%   279 14261s
 17608 15702  288.00000   39  840  292.00000  288.00000  1.37%   276 14335s
 17982 16056  288.00000  186  763  292.00000  288.00000  1.37%   276 14421s
 18247 16326  288.00000  314  736  292.00000  288.00000  1.37%   276 14506s
 18577 16654  288.00000  482  680  292.00000  288.00000  1.37%   276 14588s
 18830 16909  288.00000  615  668  292.00000  288.00000  1.37%   276 14667s
 19155 17232  288.00000  785  589  292.00000  288.00000  1.37%   276 14820s
 19157 17239  288.00000  786  599  292.00000  288.00000  1.37%   276 14891s
 19572 17639  288.00000 1017  471  292.00000  288.00000  1.37%   275 14971s
 19851 17913  288.00000   40  831  292.00000  288.00000  1.37%   275 15047s
 20160 18221  288.00000  132  740  292.00000  288.00000  1.37%   276 15125s
 20481 18491  288.00000  202  739  292.00000  288.00000  1.37%   275 15209s
 20776 18768  288.00000  363  725  292.00000  288.00000  1.37%   276 15296s
 20919 18911  288.00000  448  683  292.00000  288.00000  1.37%   276 15374s
 21243 19235  288.00000  641  619  292.00000  288.00000  1.37%   276 15456s
 21546 19533  288.00000  835  579  292.00000  288.00000  1.37%   276 15538s
 22058 20042  289.48300 1159  507  292.00000  288.00000  1.37%   276 15695s
 22131 20095  288.00000   59  826  292.00000  288.00000  1.37%   275 15771s
 22280 20243  288.00000  133  749  292.00000  288.00000  1.37%   276 15856s
 22712 20675  288.00000  317  740  292.00000  288.00000  1.37%   275 15934s
 22956 20917  288.00000  397  738  292.00000  288.00000  1.37%   275 16014s
 23243 21204  288.00000  519  706  292.00000  288.00000  1.37%   277 16176s
 23245 21201  288.00000  520  714  292.00000  288.00000  1.37%   277 16248s
 23462 21408  288.00000  564  704  292.00000  288.00000  1.37%   276 16310s
 23615 21560  288.00000  676  664  292.00000  288.00000  1.37%   276 16389s
 23900 21844  288.00000  864  603  292.00000  288.00000  1.37%   276 16462s
 24141 22086  288.00000 1042  546  292.00000  288.00000  1.37%   277 16541s
 24496 22436  288.00000 1255  432  292.00000  288.00000  1.37%   278 16616s
 24852 22774  288.00000   95  792  292.00000  288.00000  1.37%   277 16686s
 25090 23010  288.00000  169  782  292.00000  288.00000  1.37%   277 16763s
 25452 23373  288.00000  316  746  292.00000  288.00000  1.37%   277 16835s
 25807 23729  288.00000  499  706  292.00000  288.00000  1.37%   278 16906s
 26233 24149  288.00000  678  660  292.00000  288.00000  1.37%   279 16979s
 26575 24477  288.00000  899  602  292.00000  288.00000  1.37%   279 17151s
 26577 24482  288.00000  900  627  292.00000  288.00000  1.37%   279 17224s
 26827 24734  288.00000 1059  580  292.00000  288.00000  1.37%   279 17305s
 27267 25157  288.26406 1347  555  292.00000  288.00000  1.37%   280 17375s
 27833 25682  288.00000   97  715  292.00000  288.00000  1.37%   280 17461s
 28021 25868  288.00000  141  686  292.00000  288.00000  1.37%   280 17532s
 28400 26234  288.00000  222  597  292.00000  288.00000  1.37%   280 17608s
 29085 26894  288.00000   52  821  292.00000  288.00000  1.37%   279 17684s
 29466 27270  288.00000  184  725  292.00000  288.00000  1.37%   279 17793s
 29901 27695  288.00000  375  665  292.00000  288.00000  1.37%   279 17892s
 30175 27977  288.00000  590  624  292.00000  288.00000  1.37%   279 17962s
 30544 28335  288.00000  837  569  292.00000  288.00000  1.37%   279 18027s
 30739 28542  288.00000  919  559  292.00000  288.00000  1.37%   280 18106s
 31062 28836  288.00000   49  831  292.00000  288.00000  1.37%   280 18248s
 31064 28845  288.00000   49  842  292.00000  288.00000  1.37%   280 18321s
 31403 29178  288.00000   93  756  292.00000  288.00000  1.37%   280 18397s
 31868 29613  288.00000  149  690  292.00000  288.00000  1.37%   281 18470s
 32049 29771  288.00000  184  630  292.00000  288.00000  1.37%   281 18541s
 32452 30154  288.00000  244  504  292.00000  288.00000  1.37%   281 18610s
 32931 30607  288.00000   80  808  292.00000  288.00000  1.37%   281 18678s
 33348 31025  288.00000  229  735  292.00000  288.00000  1.37%   281 18744s
 33893 31561  288.00000  397  688  292.00000  288.00000  1.37%   280 18809s
 34352 31970  288.00000  613  585  292.00000  288.00000  1.37%   280 18873s
 34848 32451  288.00000   65  798  292.00000  288.00000  1.37%   279 18936s
 35039 32642  288.00000  128  764  292.00000  288.00000  1.37%   279 18993s
 35184 32787  288.00000  225  717  292.00000  288.00000  1.37%   279 19131s
 35186 32789  288.00000  226  719  292.00000  288.00000  1.37%   279 19180s
 35360 32963  288.00000  293  688  292.00000  288.00000  1.37%   279 19247s
 35799 33399  288.00000  511  644  292.00000  288.00000  1.37%   279 19313s
 36270 33850  288.00000  723  585  292.00000  288.00000  1.37%   279 19379s
 36653 34202  288.00000  109  800  292.00000  288.00000  1.37%   279 19448s
 36991 34539  288.00000  254  720  292.00000  288.00000  1.37%   279 19524s
 37346 34889  288.00000  426  666  292.00000  288.00000  1.37%   280 19596s
 37804 35322  288.00000  643  613  292.00000  288.00000  1.37%   280 19666s
 38293 35799  288.00000   57  817  292.00000  288.00000  1.37%   279 19734s
 38315 35823  288.00000   71  814  292.00000  288.00000  1.37%   279 19799s
 38637 36143  288.00000  227  717  292.00000  288.00000  1.37%   279 19865s
 39020 36526  288.00000  411  673  292.00000  288.00000  1.37%   279 19932s
 39460 36965  288.00000  628  615  292.00000  288.00000  1.37%   279 20107s
 39462 36960  288.00000  629  607  292.00000  288.00000  1.37%   279 20178s
 39958 37425  288.00000   44  828  292.00000  288.00000  1.37%   279 20249s
 40068 37536  288.00000  107  800  292.00000  288.00000  1.37%   278 20316s
 40375 37842  288.00000  237  717  292.00000  288.00000  1.37%   278 20390s
 40799 38264  288.00000  420  581  292.00000  288.00000  1.37%   278 20449s
 41020 38477  288.00000  527  638  292.00000  288.00000  1.37%   278 20450s
 41044 38503  288.00000  594  371  292.00000  288.00000  1.37%   278 20490s
 41230 38677  288.00000   70  828  292.00000  288.00000  1.37%   278 20560s
 41423 38868  288.00000  127  777  292.00000  288.00000  1.37%   278 20623s
 41776 39178  288.00000  282  704  292.00000  288.00000  1.37%   278 20695s
 41896 39300  288.00000  358  716  292.00000  288.00000  1.37%   278 20839s
 41898 39304  288.00000  359  712  292.00000  288.00000  1.37%   278 20901s
 42218 39622  288.00000  545  671  292.00000  288.00000  1.37%   278 20977s
 42445 39854  288.00000  679  610  292.00000  288.00000  1.37%   279 21051s
 42814 40207  290.00000  885  490  292.00000  288.00000  1.37%   279 21129s
 42942 40317  288.00000   74  787  292.00000  288.00000  1.37%   279 21197s
 43308 40675  288.00000  122  706  292.00000  288.00000  1.37%   280 21262s
 43602 40949  288.00000  163  684  292.00000  288.00000  1.37%   280 21335s
 43839 41177  288.00000  193  603  292.00000  288.00000  1.37%   280 21412s
 44048 41386  288.00000  230  529  292.00000  288.00000  1.37%   280 21482s
 44502 41811  288.00000  125  773  292.00000  288.00000  1.37%   280 21555s
 44599 41909  288.00000  142  774  292.00000  288.00000  1.37%   280 21614s
 44905 42209  288.00000  288  709  292.00000  288.00000  1.37%   281 21746s
 45040 42293  288.00000  289  702  292.00000  288.00000  1.37%   281 21813s
 45331 42582  288.00000  469  630  292.00000  288.00000  1.37%   281 21872s
 45583 42832  288.00000  622  562  292.00000  288.00000  1.37%   280 21970s
 46025 43247  288.00000  123  755  292.00000  288.00000  1.37%   280 22053s
 46316 43533  288.00000  230  716  292.00000  288.00000  1.37%   280 22112s
 46571 43780  288.00000  348  663  292.00000  288.00000  1.37%   280 22181s
 46847 44055  288.00000  513  627  292.00000  288.00000  1.37%   280 22336s
 46849 44059  288.00000  514  616  292.00000  288.00000  1.37%   280 22396s
 47072 44274  288.00000  672  567  292.00000  288.00000  1.37%   280 22462s
 47483 44647  288.00000  124  756  292.00000  288.00000  1.37%   280 22529s
 47843 44979  288.00000  215  693  292.00000  288.00000  1.37%   279 22594s
 48007 45142  288.00000  331  665  292.00000  288.00000  1.37%   279 22664s
 48335 45466  288.00000  527  594  292.00000  288.00000  1.37%   279 22737s
 48738 45858  288.00000   85  785  292.00000  288.00000  1.37%   279 22812s
 49026 46142  288.00000  201  737  292.00000  288.00000  1.37%   279 22883s
 49276 46358  288.00000  315  669  292.00000  288.00000  1.37%   279 22950s
 49619 46700  288.00000  508  613  292.00000  288.00000  1.37%   279 23014s
 49881 46866  288.00000  361  630  292.00000  288.00000  1.37%   279 23015s
 49956 47033  288.00000  675  597  292.00000  288.00000  1.37%   278 23075s
 50314 47364  288.00000  748  578  292.00000  288.00000  1.37%   278 23148s
 50661 47691  288.00000   77  817  292.00000  288.00000  1.37%   278 23317s
 50663 47696  288.00000   78  801  292.00000  288.00000  1.37%   278 23378s

Gurobi 6.5.0 (mac64) logging started Wed Apr 20 15:25:38 2016

Optimize a model with 3057 rows, 43808 columns and 1086146 nonzeros
Coefficient statistics:
  Matrix range    [1e+00, 1e+00]
  Objective range [1e+00, 1e+00]
  Bounds range    [1e+00, 1e+00]
  RHS range       [1e+00, 6e+00]
Presolve removed 18 rows and 15314 columns
Presolve time: 2.56s
Presolved: 3039 rows, 28494 columns, 720772 nonzeros
Variable types: 0 continuous, 28494 integer (28494 binary)

Root simplex log...

Iteration    Objective       Primal Inf.    Dual Inf.      Time
    2951    2.0000007e+02   1.170369e+04   0.000000e+00      5s
    7772    2.4200012e+02   1.222729e+04   0.000000e+00     10s
   11885    2.5600029e+02   3.779786e+03   0.000000e+00     15s
   14683    2.5600000e+02   0.000000e+00   0.000000e+00     19s

Root relaxation: objective 2.560000e+02, 14683 iterations, 15.38 seconds

    Nodes    |    Current Node    |     Objective Bounds      |     Work
 Expl Unexpl |  Obj  Depth IntInf | Incumbent    BestBd   Gap | It/Node Time

     0     0  256.00000    0 1009          -  256.00000      -     -   31s
     0     0  256.00000    0  955          -  256.00000      -     -   37s
     0     0  256.00000    0  954          -  256.00000      -     -   43s
     0     0  256.00000    0  915          -  256.00000      -     -   48s
     0     0  256.00000    0  909          -  256.00000      -     -   48s
     0     0  256.00000    0  904          -  256.00000      -     -   50s
     0     0  256.00000    0  900          -  256.00000      -     -   51s
     0     0  256.00000    0  900          -  256.00000      -     -   53s
     0     0  256.00000    0  898          -  256.00000      -     -   53s
     0     0  256.00000    0  899          -  256.00000      -     -   57s
     0     0  256.00000    0  898          -  256.00000      -     -   57s
     0     0  256.00000    0  896          -  256.00000      -     -   59s
     0     0  256.00000    0  896          -  256.00000      -     -   60s
     0     0  256.00000    0  897          -  256.00000      -     -   62s
     0     0  256.00000    0  898          -  256.00000      -     -   63s
     0     0  256.00000    0  894          -  256.00000      -     -   81s
     0     0  256.00000    0  898          -  256.00000      -     -   82s
